peakDumbCharging = 22200; 
Machine = anon_enum(16); 
machineSpeed = [3700,3700,3700,3700,3700,3700,3700,3700,3700,3700,3700,3700,3700,3700,3700,3700]; 
machineLoad = [3700,3700,3700,3700,3700,3700,3700,3700,3700,3700,3700,3700,3700,3700,3700,3700]; 
Car = anon_enum(28); 
demandCar = [5880,2680,18880,12920,2120,8400,15360,1680,5200,9600,9960,13240,1840,3120,10280,3520,5280,37800,23200,28880,2480,4840,15960,18120,160,12000,18160,13680]; 
arrivalCar = [80,76,73,70,68,68,67,66,63,63,61,61,61,60,59,59,57,54,53,51,51,50,48,45,45,44,43,32]; 
departureCar = [82,78,79,72,70,71,68,68,66,69,66,68,62,62,63,62,61,72,63,62,53,53,54,53,46,49,49,39]; 
